% demand
num_movements = 22;
loading_factor = [1200, 1550, 950, 1900, 1050, 1450, 1350, 1250, 1900, 1750, 1150, 950, 1400, 1750, 1900, 1450, 1400, 1350, 1150, 1100, 1500, 1050];
pickup_time = [0, 0, 0, 0, 1, 1, 1, 2, 4, 4, 4, 4, 5, 5, 5, 5, 6, 6, 6, 6, 7, 7];
delivery_time = [1, 1, 1, 4, 4, 4, 4, 3, 5, 5, 5, 5, 7, 6, 6, 6, 7, 7, 7, 7, 8, 8];

% transporter definition
total_capacity = 7000;
num_decks = 3;
capacity = [3000, 1000, 3000];

% ways out of decks
num_ways_out = 1;
paths_out = array3d(decks, ways_out, decks, [
% ways out of deck d1
2, 3, 0, 

% ways out of deck d2
3, 0, 0, 

% ways out of deck d3
0, 0, 0,	

]);

